Te3                                     
   1.0000000000000000     
     4.3568403542190621    0.0000031544405446   -0.0001896953993807
    -2.1784174337602602    3.7732107708046874    0.0001552955756998
    -0.0002838718374344    0.0001054770658883    5.9044004683318434
   Te
     3
Direct
  0.2818426679394305  0.0000153275744075  0.3333086850152926
  0.0000051662594879  0.2818231669709138  0.6666879744834687
  0.7181521658010818  0.7181615054546787  0.0000033405012387

  0.00000000E+00  0.00000000E+00  0.00000000E+00
  0.00000000E+00  0.00000000E+00  0.00000000E+00
  0.00000000E+00  0.00000000E+00  0.00000000E+00
