K-Spacing Value to Generate K-Mesh: 0.030
0
Gamma Monkhorst-Pack
   5   5   3
0.0  0.0  0.0
