Te3                                     
   1.0000000000000000     
     4.3077663213625899   -0.0000000000000001    0.0000000000000003
    -2.1538831606812936    3.7306350678670439    0.0000000000000003
     0.0000000000000000    0.0000000000000000    5.9903342730855407
   Te
     3
Direct
  0.2699334143674224  0.0000566318576652  0.3334915491372791
  0.0000260505804982  0.2698825908761155  0.6665196257614480
  0.7300405350520794  0.7300607772662192 -0.0000111748987270

  0.00000000E+00  0.00000000E+00  0.00000000E+00
  0.00000000E+00  0.00000000E+00  0.00000000E+00
  0.00000000E+00  0.00000000E+00  0.00000000E+00
