Cd2                                     
   1.0000000000000000     
     2.9413120766832677    0.0000000000000001    0.0000000000000002
    -1.4706560383416329    2.5472509788656734    0.0000000000000002
    -0.0000000000000000    0.0000000000000000    5.6214506312785826
   Cd
     2
Direct
  0.6666666666666643  0.3333333333333357  0.7500000000000000
  0.3333333333333357  0.6666666666666643  0.2500000000000000

  0.00000000E+00  0.00000000E+00  0.00000000E+00
  0.00000000E+00  0.00000000E+00  0.00000000E+00
