ALGO = All  # change to all if zhegv, fexcp/f or zbrent errors encountered (done automatically by snb-run)
EDIFF = 0.1E-05
EDIFFG = -0.05
ENCUT = 300
GGA = PS
IBRION = 2
ISIF = 3
ISMEAR = 0
ISPIN = 2
LASPH = True
LCHARG = False
LHFCALC = False
LMAXMIX = 4
LORBIT = 11
LREAL = Auto
LVHAR = True
LWAVE = False
NCORE = 4
NEDOS = 2000
NELM = 40
NSW = 300
PREC = Accurate
