K-Spacing Value to Generate K-Mesh: 0.030
0
Gamma Monkhorst-Pack
   7   7   3
0.0  0.0  0.0
