Cd2                                     
   1.0000000000000000     
     2.9150019560098195   -0.0000000000000000    0.0000000000000002
    -1.4575009780049089    2.5244657459858328    0.0000000000000002
    -0.0000000000000000   -0.0000000000000000    5.8938430930140369
   Cd
     2
Direct
  0.6666666666666643  0.3333333333333357  0.7500000000000000
  0.3333333333333357  0.6666666666666643  0.2500000000000000

  0.00000000E+00  0.00000000E+00  0.00000000E+00
  0.00000000E+00  0.00000000E+00  0.00000000E+00
